33D32945 STP File, STP Format Version 1.0

SECTION Comment
Name    "Series B" 
Creator "A. M. Costa" 
Format  "Z.H. Fu and J. K. Hao"
Remark  "Sparse graph with random weights"
#TotalEdgeCost 359
#BudgetFraction 5
END 

SECTION Graph 
Nodes 50 
Edges 63 
Root 1
Budget 71
HopLimit 9
E 1 21 7 
E 2 8 8 
E 2 19 5 
E 2 21 7 
E 2 32 2 
E 2 36 8 
E 3 11 7 
E 4 5 8 
E 4 36 6 
E 5 28 8 
E 5 30 4 
E 6 17 7 
E 6 42 9 
E 7 20 3 
E 7 29 7 
E 9 29 5 
E 10 22 6 
E 11 36 9 
E 12 41 5 
E 13 50 1 
E 14 20 7 
E 14 31 9 
E 15 30 1 
E 15 40 10 
E 16 20 8 
E 16 30 2 
E 17 21 5 
E 17 42 6 
E 18 19 2 
E 18 21 10 
E 18 28 1 
E 18 43 1 
E 20 22 2 
E 20 27 2 
E 20 34 10 
E 20 38 8 
E 20 40 10 
E 20 48 2 
E 21 22 2 
E 22 40 8 
E 22 41 8 
E 22 43 7 
E 23 40 3 
E 24 28 5 
E 24 44 8 
E 25 34 4 
E 25 41 5 
E 26 45 6 
E 27 34 4 
E 28 45 1 
E 29 33 7 
E 30 34 2 
E 33 35 3 
E 36 39 7 
E 36 41 2 
E 36 49 9 
E 36 50 10 
E 37 47 3 
E 39 44 3 
E 41 44 7 
E 41 47 7 
E 42 46 10 
E 45 47 10 
END 

SECTION ProfitableVertices 
ProfitableVertices 9 
PV 1 88
PV 22 52
PV 24 74
PV 27 61
PV 34 34
PV 35 64
PV 37 4
PV 48 32
PV 49 58
END 

EOF 
